Cars = 1..200;
Options = 1..5;
Classes = 1..27;
sequenceMinCapacity = [0, 0, 0, 0, 0];
sequenceMaxCapacity = [1, 2, 1, 2, 1];
sequenceSize = [2, 3, 3, 5, 5];
numOrdered = [4, 4, 1, 11, 4, 3, 3, 3, 10, 4, 3, 1, 4, 15, 13, 23, 4, 3, 2, 6, 17, 9, 1, 29, 10, 12, 1];
classHasOption = [|false,  true,  true,  true, false
                  | true, false,  true,  true, false
                  |false, false,  true, false,  true
                  | true,  true, false,  true, false
                  |false,  true, false,  true,  true
                  |false, false, false, false,  true
                  | true, false, false,  true,  true
                  | true,  true,  true,  true, false
                  |false,  true,  true, false, false
                  | true, false, false, false,  true
                  |false, false,  true,  true,  true
                  |false,  true,  true,  true,  true
                  |false, false,  true,  true, false
                  |false,  true, false,  true, false
                  |false, false,  true, false, false
                  | true,  true, false, false, false
                  | true, false,  true, false, false
                  | true,  true, false, false,  true
                  |false,  true,  true, false,  true
                  | true,  true,  true, false, false
                  | true, false, false, false, false
                  |false,  true, false, false,  true
                  | true, false,  true, false,  true
                  |false,  true, false, false, false
                  | true, false, false,  true, false
                  |false, false, false, false, false
                  | true, false, false, false, false|];
optionOrdering = [1, 5, 3, 4, 2];
